; benchmark generated from python API
(set-info :status unknown)
(declare-datatypes ((RealState 0)) (((RMk1 (rval1 Real)) (RMk2 (rval2 Real)))))
 (assert
 (forall ((|v11:0| Real) )(forall ((|v10:1| Real) )(forall ((|v9:2| Real) )(forall ((|v8:3| Real) )(exists ((|v7:4_st| RealState) (val!4036 Real) )(exists ((|v6:5_st| RealState) (val!4037 Real) )(exists ((|v5:6_st| RealState) (val!4038 Real) )(exists ((|v4:7_st| RealState) (val!4039 Real) )(forall ((|v3:8| Real) )(forall ((|v2:9| Real) )(forall ((|v1:10| Real) )(forall ((|v0:11| Real) )(let ((?x1851 (- 3.0)))
 (let ((?x480 (+ (+ (+ (* (- 7.0) |v9:2|) (* (- 4.0) |v11:0|)) (* 6.0 |v8:3|)) |v8:3|)))
 (let ((?x1718 (* 19.0 |v0:11|)))
 (let ((?x1034 (+ (+ (+ (* (- 7.0) |v11:0|) (* (- 18.0) |v8:3|)) (* 6.0 |v2:9|)) ?x1718)))
 (let ((?x745 (- 7.0)))
 (let ((?x386 (* ?x745 |v10:1|)))
 (let ((?x1262 (+ (+ (* 3.0 (rval2 |v4:7_st|)) (* (- 9.0) |v3:8|)) (* (- 16.0) |v8:3|))))
 (let ((?x3180 (- 14.0)))
 (let ((?x813 (rval2 |v6:5_st|)))
 (let ((?x1045 (* 11.0 ?x813)))
 (let ((?x2940 (+ (+ (+ (* (- 9.0) ?x813) ?x386) (* (- 18.0) (rval2 |v7:4_st|))) ?x1045)))
 (let ((?x74 (- 15.0)))
 (let ((?x2070 (* (- 11.0) |v0:11|)))
 (let ((?x114 (+ (+ (+ (* (- 19.0) ?x813) (* 16.0 |v0:11|)) (* 7.0 |v3:8|)) ?x2070)))
 (let ((?x2226 (- 2.0)))
 (let ((?x159 (* 17.0 |v11:0|)))
 (let ((?x2966 (rval2 |v4:7_st|)))
 (let ((?x2263 (* 7.0 ?x2966)))
 (let (($x1163 (<= (+ (+ (+ (* 0.0 |v10:1|) (* 19.0 (rval2 |v7:4_st|))) ?x2263) ?x159) ?x2226)))
 (let ((?x1414 (* 5.0 |v11:0|)))
 (let ((?x1089 (+ (+ (* 18.0 |v3:8|) (* 6.0 |v2:9|)) (* (- 10.0) |v2:9|))))
 (let ((?x1253 (- 20.0)))
 (let ((?x1838 (* ?x1253 |v3:8|)))
 (let ((?x1062 (+ (+ (+ (* (- 12.0) ?x2966) (* 8.0 |v9:2|)) (* (- 18.0) |v0:11|)) ?x1838)))
 (let (($x2405 (and (or (<= ?x1062 9.0) (<= (+ ?x1089 ?x1414) 13.0)) (or $x1163 (<= ?x114 ?x74)))))
 (let (($x417 (or $x2405 (or (<= ?x2940 ?x3180) (or (<= (+ ?x1262 ?x386) 13.0) (<= ?x1034 9.0))))))
 (let ((?x2746 (- 8.0)))
 (let ((?x111 (rval2 |v5:6_st|)))
 (let ((?x3058 (- 13.0)))
 (let ((?x151 (* ?x3058 ?x111)))
 (let ((?x1934 (rval2 |v7:4_st|)))
 (let ((?x2308 (* 7.0 ?x1934)))
 (let (($x719 (<= (+ (+ (+ (* (- 4.0) ?x1934) (* (- 17.0) ?x813)) ?x2308) ?x151) ?x2746)))
 (let ((?x376 (* 2.0 |v10:1|)))
 (let (($x1893 (<= (+ (+ (+ (* (- 19.0) |v9:2|) (* ?x745 |v3:8|)) (* 13.0 |v0:11|)) ?x376) 13.0)))
 (let (($x2372 (<= (+ (+ (+ ?x813 (* 11.0 |v3:8|)) (* 13.0 ?x813)) (* 15.0 |v10:1|)) 18.0)))
 (let ((?x2841 (+ (+ (+ (* 15.0 |v2:9|) (* (- 10.0) |v9:2|)) (* ?x3058 |v11:0|)) (* ?x74 |v8:3|))))
 (let ((?x118 (- 19.0)))
 (let ((?x1540 (* ?x118 |v1:10|)))
 (let (($x3126 (<= (+ (+ (+ (* 19.0 |v2:9|) (* ?x2226 |v0:11|)) (* (- 1.0) ?x111)) ?x1540) 18.0)))
 (let (($x2595 (<= (+ (+ (+ ?x1045 (* 18.0 |v0:11|)) (* 5.0 |v0:11|)) (* ?x2226 |v10:1|)) ?x1253)))
 (let ((?x427 (* 13.0 |v1:10|)))
 (let (($x1845 (<= (+ (+ (+ (* 12.0 |v3:8|) ?x1540) (* (- 5.0) |v11:0|)) ?x427) ?x3058)))
 (let ((?x1733 (* 15.0 |v3:8|)))
 (let ((?x3135 (+ (+ (+ (* 0.0 ?x1934) (* 20.0 ?x813)) (* (- 10.0) |v8:3|)) ?x1733)))
 (let (($x3040 (or (or (and (<= ?x3135 13.0) $x1845) (and $x2595 $x3126)) (and (and (<= ?x2841 19.0) $x2372) (or $x1893 $x719)))))
 (let ((?x1862 (* 20.0 |v11:0|)))
 (let (($x246 (<= (+ (+ (+ (* 5.0 |v2:9|) (* 8.0 |v2:9|)) (* 15.0 |v10:1|)) ?x1862) 1.0)))
 (let ((?x2603 (- 18.0)))
 (let ((?x753 (* ?x2603 |v2:9|)))
 (let (($x537 (<= (+ (+ (+ ?x1862 (* 17.0 |v2:9|)) (* (- 4.0) |v10:1|)) ?x753) ?x1851)))
 (let ((?x697 (+ (+ (+ (* 11.0 |v10:1|) (* ?x2746 |v11:0|)) (* 2.0 |v1:10|)) (* 3.0 |v11:0|))))
 (let ((?x2961 (- 16.0)))
 (let ((?x1754 (* ?x2961 |v3:8|)))
 (let ((?x602 (+ (+ (+ (* (- 1.0) ?x1934) (* (- 6.0) ?x1934)) (* 20.0 |v1:10|)) ?x1754)))
 (let ((?x2023 (- 4.0)))
 (let ((?x301 (+ (+ (+ (* ?x2746 |v1:10|) (* 14.0 |v8:3|)) (* 3.0 ?x111)) (* (- 17.0) |v11:0|))))
 (let (($x228 (<= (+ (+ (+ (* (- 12.0) |v10:1|) ?x1733) (* (- 1.0) |v8:3|)) ?x151) 2.0)))
 (let (($x1900 (<= (+ (+ (+ (* 9.0 |v3:8|) (* ?x2023 ?x2966)) (* ?x3180 |v1:10|)) ?x2070) ?x2023)))
 (let ((?x1132 (+ (+ (+ (* 2.0 |v2:9|) (* 5.0 |v2:9|)) (* 15.0 |v0:11|)) (* 6.0 |v0:11|))))
 (let (($x2385 (<= ?x1132 20.0)))
 (let (($x2056 (and (and (and $x2385 $x1900) (or $x228 (<= ?x301 ?x2023))) (or (or (<= ?x602 4.0) (<= ?x697 ?x1851)) (or $x537 $x246)))))
 (let (($x1555 (<= (+ (+ (+ (* 12.0 ?x2966) (* ?x118 |v10:1|)) |v0:11|) (* 2.0 ?x2966)) 8.0)))
 (let ((?x168 (* 19.0 ?x813)))
 (let (($x1603 (<= (+ (+ (+ (* 3.0 ?x111) (* (- 12.0) |v3:8|)) ?x1838) ?x168) 3.0)))
 (let (($x1357 (<= (+ (+ (+ (* 20.0 ?x1934) ?x111) (* 13.0 |v0:11|)) (* ?x2961 |v1:10|)) 2.0)))
 (let ((?x2936 (+ (+ (+ (* (- 17.0) ?x1934) (* 3.0 |v9:2|)) (* 0.0 ?x2966)) (* ?x3058 |v9:2|))))
 (let ((?x1093 (* 10.0 |v11:0|)))
 (let (($x2990 (<= (+ (+ (+ (* 12.0 |v2:9|) (* ?x2603 ?x2966)) (* (- 12.0) ?x1934)) ?x1093) 17.0)))
 (let ((?x877 (+ (+ (+ (* (- 10.0) ?x111) (* ?x74 |v3:8|)) (* 13.0 |v2:9|)) (* ?x2603 |v10:1|))))
 (let ((?x341 (+ (+ (+ (* 5.0 |v10:1|) (* ?x745 |v9:2|)) (* 17.0 ?x111)) (* (- 10.0) ?x1934))))
 (let (($x338 (and (or (<= ?x341 16.0) (<= ?x877 18.0)) (and $x2990 (<= ?x2936 14.0)))))
 (let (($x3090 (<= (+ (+ (+ (* ?x3180 |v0:11|) (* ?x2961 |v1:10|)) (* 19.0 |v3:8|)) |v2:9|) 4.0)))
 (let (($x1055 (<= (+ (+ (+ (* 15.0 |v0:11|) ?x2308) (* ?x2746 ?x111)) (* 17.0 |v10:1|)) 6.0)))
 (let ((?x1557 (* 7.0 |v0:11|)))
 (let (($x1031 (<= (+ (+ (+ (* 12.0 |v9:2|) (* 17.0 ?x813)) (* 5.0 ?x111)) ?x1557) ?x3058)))
 (let ((?x1385 (- 6.0)))
 (let ((?x3002 (+ (+ (+ (* 5.0 |v1:10|) (* 3.0 |v1:10|)) (* ?x118 |v11:0|)) (* 16.0 ?x2966))))
 (let ((?x2944 (- 1.0)))
 (let ((?x253 (- 17.0)))
 (let ((?x2157 (* ?x253 ?x1934)))
 (let (($x267 (<= (+ (+ (+ (* ?x1851 ?x2966) (* 15.0 |v8:3|)) (* 0.0 |v2:9|)) ?x2157) ?x2944)))
 (let ((?x1840 (* 16.0 ?x111)))
 (let (($x729 (<= (+ (+ (+ (* ?x3058 |v8:3|) (* ?x1851 |v2:9|)) (* 16.0 |v10:1|)) ?x1840) ?x74)))
 (let (($x2253 (<= (+ (+ (+ ?x1862 (* ?x2961 |v0:11|)) (* 3.0 ?x111)) (* ?x1253 |v10:1|)) ?x2746)))
 (let ((?x122 (* 9.0 |v0:11|)))
 (let (($x1018 (<= (+ (+ (+ (* 8.0 ?x813) (* 6.0 |v1:10|)) (* ?x1851 ?x2966)) ?x122) ?x74)))
 (let (($x761 (or (and (and $x1018 $x2253) (or $x729 $x267)) (and (and (<= ?x3002 ?x1385) $x1031) (or $x1055 $x3090)))))
 (let ((?x449 (+ (+ (+ (* ?x2226 ?x1934) (* 7.0 |v11:0|)) (* ?x3180 ?x1934)) (* ?x3058 ?x2966))))
 (let ((?x2485 (+ (+ (+ (* 13.0 ?x1934) (* ?x2746 |v11:0|)) (* 17.0 ?x813)) (* ?x2944 ?x813))))
 (let ((?x2370 (- 12.0)))
 (let ((?x2244 (* 13.0 |v2:9|)))
 (let (($x243 (<= (+ (+ (+ (* 5.0 |v3:8|) (* ?x118 |v11:0|)) (* 8.0 |v3:8|)) ?x2244) ?x2370)))
 (let ((?x2102 (* ?x3058 |v3:8|)))
 (let (($x2269 (<= (+ (+ (+ (* ?x2023 |v8:3|) (* 5.0 ?x111)) (* ?x2370 ?x111)) ?x2102) 8.0)))
 (let ((?x1313 (+ (+ (+ (* 0.0 ?x1934) (* 16.0 ?x813)) (* ?x1385 |v10:1|)) (* ?x74 ?x813))))
 (let ((?x1203 (* ?x2370 |v2:9|)))
 (let (($x445 (<= (+ (+ (+ (* ?x118 ?x813) (* 3.0 |v9:2|)) (* ?x2746 |v10:1|)) ?x1203) 16.0)))
 (let ((?x1992 (* 14.0 |v0:11|)))
 (let (($x1620 (<= (+ (+ (+ (* ?x1385 |v11:0|) (* ?x253 |v2:9|)) (* 0.0 ?x1934)) ?x1992) 9.0)))
 (let ((?x2265 (- 10.0)))
 (let (($x3057 (<= (+ (+ (+ (* 5.0 |v9:2|) |v9:2|) (* ?x2023 ?x111)) (* 14.0 |v9:2|)) ?x2265)))
 (let (($x3038 (and (or (or $x3057 $x1620) (or $x445 (<= ?x1313 ?x2226))) (and (or $x2269 $x243) (or (<= ?x2485 14.0) (<= ?x449 4.0))))))
 (let (($x342 (or (and (or $x3038 $x761) (and (and $x338 (or $x1357 (or $x1603 $x1555))) $x2056)) (and (or $x3040 $x417) (<= ?x480 ?x1851)))))
 (let (($x3027 (not (= |v4:7_st| (RMk1 val!4039)))))
 (let (($x820 (not (= |v5:6_st| (RMk1 val!4038)))))
 (let (($x1286 (not (= |v6:5_st| (RMk1 val!4037)))))
 (let (($x2483 (not (= |v7:4_st| (RMk1 val!4036)))))
 (and $x2483 $x1286 $x820 $x3027 $x342))))))))))))))))))))))))))))))))))))))))))))))))))))))))))))))))))))))))))))))))))))))))))))))))))))))))))))))
 )
 )
 )
 )
 )
 )
 )
 )
 )
 )
 )
 )
(check-sat)
